7
13
0 16 6 34 13 26 56 28 3 74 67 1 72
9
0 41 42 22 23 17 54 30 24
12
0 5 75 33 45 52 65 25 50 8 2 32
14
0 29 66 10 7 51 53 12 44 47 46 73 27 61
15
0 48 43 49 31 38 71 9 64 37 57 11 39 15 62
12
0 20 4 18 14 36 19 69 70 35 60 21
7
0 55 40 63 68 59 58
